25 40
1 2 3
1 6 3
2 3 1
2 7 5
3 4 2
3 8 5
4 5 1
4 9 3
5 10 2
6 7 5
6 11 3
7 8 5
7 12 1
8 9 1
8 13 2
9 10 3
9 14 1
10 15 2
11 12 4
11 16 5
12 13 3
12 17 3
13 14 4
13 18 1
14 15 2
14 19 2
15 20 4
16 17 1
16 21 3
17 18 3
17 22 1
18 19 1
18 23 4
19 20 2
19 24 5
20 25 5
21 22 4
22 23 4
23 24 1
24 25 5
